







































































40 75 
65 41 
35 43 
0 21 
45 34 
46 11 
30 57 
38 22 

37 26 
74 52 
36 10 
20 64 
31 8 
49 2 
16 
6 15 
18 12 
63 9 
59 69 
3 50 
66 32 
47 54 
73 58 
76 28 
7 68 
29 5 
53 33 
51 23 
4 19 
25 
60 24 
14 62 
17 55 

44 
72 27 
61 
13 39 
70 48 
42 56 
67 1 
71 
